NAME : OMNETRUN
COMMENT : 524.61
TYPE : CVRP
DIMENSION : 21
EDGE_WEIGHT_TYPE : EUC_2D
CAPACITY : 21
NODE_COORD_SECTION
1 0.107093 -0.77924
2 175.241 -335.812
3 64.4496 -1320.21
4 37.2373 -1870.79
5 160.401 -3069.29
6 59.4119 -4687.9
7 303.666 -941.055
8 373.96 -1522.16
9 305.079 -2732.71
10 389.363 -3390.18
11 433.388 -4157.33
12 324.694 -5033.9
13 576.017 -694.082
14 618.445 -1144.39
15 635.194 -2984.14
16 607.599 -4556.34
17 974.811 -378.814
18 751.397 -1721.59
19 913.891 -2076.52
20 961.102 -2679.41
21 769.672 -3866.85
DEMAND_SECTION
1 0
2 1
3 1
4 1
5 1
6 1
7 1
8 1
9 1
10 1
11 1
12 1
13 1
14 1
15 1
16 1
17 1
18 1
19 1
20 1
21 1
DEPOT_SECTION
1
-1
EOF
